c Random generated cnf formula, satisfiable: true
p cnf 10 50
4 -3 -8 0
-5 9 6 0
8 -6 4 0
-5 -6 -4 0
10 -1 -6 0
-2 -3 9 0
4 6 -8 0
9 5 -1 0
4 3 5 0
8 7 -1 0
3 -7 -4 0
-5 8 -3 0
10 4 9 0
7 -6 9 0
10 -4 -6 0
-2 5 -3 0
6 1 -7 0
4 -9 6 0
2 1 6 0
-6 4 5 0
5 -1 -7 0
5 -10 -1 0
-10 -9 1 0
5 -8 -1 0
-1 -2 -9 0
8 -5 -4 0
-3 -10 5 0
2 -5 -10 0
3 1 -6 0
-2 10 8 0
-5 4 10 0
-4 -6 -1 0
6 4 10 0
10 1 -9 0
1 -4 7 0
-9 -7 -1 0
6 -10 -7 0
2 9 3 0
5 -1 -7 0
4 -6 -5 0
-7 -6 -4 0
1 -10 7 0
-7 10 -3 0
-9 -8 1 0
9 -1 -3 0
-2 -6 -4 0
9 -5 3 0
-5 -7 -9 0
1 -10 -2 0
9 -1 3 0
